40 40 40
50
17 4 10
19 3 20
27 29 35
25 3 33
34 13 25
18 9 29
29 16 10
33 33 1
9 1 30
3 33 21
23 12 32
32 6 17
34 8 21
20 14 24
27 1 17
22 24 28
35 8 27
17 14 16
14 8 27
28 26 12
5 31 13
33 6 30
35 15 13
25 5 12
7 12 16
26 20 33
25 8 9
19 1 22
35 32 20
14 33 34
33 5 2
7 10 23
33 5 25
15 32 22
10 14 15
4 21 3
17 25 18
34 32 23
16 24 23
30 27 20
1 11 27
1 22 16
35 34 27
4 4 25
25 3 2
20 7 11
3 34 12
23 22 3
5 29 13
23 28 13
